% File represents an instance of a Composite Structure problem to be solved by a CP framework
% Created on 2025-03-26 10:41:24.933
T = 50;
n = 16;
m = 24;
edges = [(1, 2),
(5, 6),
(9, 10),
(13, 14),
(3, 2),
(6, 7),
(10, 11),
(14, 15),
(4, 3),
(8, 7),
(12, 11),
(15, 16),
(5, 1),
(9, 5),
(13, 9),
(6, 2),
(10, 6),
(14, 10),
(3, 7),
(11, 7),
(15, 11),
(4, 8),
(12, 8),
(12, 16)];
counts = [|12, 8, 12, 2,
|12, 6, 12, 2,
|12, 8, 12, 2,
|14, 10, 14, 2,
|12, 8, 12, 8,
|12, 8, 12, 2,
|12, 2, 12, 2,
|14, 4, 14, 2,
|12, 12, 12, 8,
|12, 8, 12, 6,
|12, 6, 12, 2,
|14, 6, 14, 2,
|12, 14, 12, 12,
|12, 14, 12, 6,
|12, 12, 12, 2,
|12, 6, 12, 2|];
